NAME : n100w40.002.786.tour
COMMENT : Length = 786
COMMENT : Found by LKH [Keld Helsgaun] Tue May  2 05:48:14 2017
TYPE : TOUR
DIMENSION : 101
TOUR_SECTION
1
39
82
10
45
81
38
97
34
21
55
62
78
17
28
29
20
43
14
59
74
99
63
37
92
35
65
94
13
8
9
58
76
33
96
3
71
16
86
73
50
26
95
66
84
100
57
93
47
51
4
5
67
54
19
91
7
72
69
18
12
89
2
44
36
11
90
88
61
31
6
77
83
27
56
48
30
22
60
52
85
24
46
49
79
80
15
32
41
25
68
40
42
53
98
64
23
101
75
87
70
-1
EOF
